(set-option :produce-models true)
(set-logic QF_UF)
(declare-fun p20() Bool)
(declare-fun p71() Bool)
(declare-fun p94() Bool)
(declare-fun p76() Bool)
(declare-fun p67() Bool)
(declare-fun p59() Bool)
(declare-fun p39() Bool)
(declare-fun p22() Bool)
(declare-fun p58() Bool)
(declare-fun p72() Bool)
(declare-fun p81() Bool)
(declare-fun p84() Bool)
(declare-fun p96() Bool)
(declare-fun p44() Bool)
(declare-fun p83() Bool)
(declare-fun p6() Bool)
(declare-fun p66() Bool)
(declare-fun p79() Bool)
(declare-fun p73() Bool)
(declare-fun p62() Bool)
(declare-fun p35() Bool)
(declare-fun p36() Bool)
(declare-fun p8() Bool)
(declare-fun p33() Bool)
(declare-fun p25() Bool)
(declare-fun p34() Bool)
(declare-fun p54() Bool)
(declare-fun p68() Bool)
(declare-fun p64() Bool)
(declare-fun p0() Bool)
(declare-fun p41() Bool)
(declare-fun p1() Bool)
(declare-fun p82() Bool)
(declare-fun p28() Bool)
(declare-fun p9() Bool)
(declare-fun p65() Bool)
(declare-fun p85() Bool)
(declare-fun p47() Bool)
(declare-fun p46() Bool)
(declare-fun p43() Bool)
(declare-fun p2() Bool)
(declare-fun p52() Bool)
(declare-fun p91() Bool)
(declare-fun p88() Bool)
(declare-fun p16() Bool)
(declare-fun p74() Bool)
(declare-fun p90() Bool)
(declare-fun p40() Bool)
(declare-fun p17() Bool)
(declare-fun p50() Bool)
(declare-fun p75() Bool)
(declare-fun p48() Bool)
(declare-fun p98() Bool)
(declare-fun p11() Bool)
(declare-fun p10() Bool)
(declare-fun p49() Bool)
(declare-fun p27() Bool)
(declare-fun p77() Bool)
(declare-fun p42() Bool)
(declare-fun p19() Bool)
(declare-fun p24() Bool)
(declare-fun p69() Bool)
(declare-fun p93() Bool)
(declare-fun p86() Bool)
(declare-fun p21() Bool)
(declare-fun p26() Bool)
(declare-fun p89() Bool)
(declare-fun p78() Bool)
(declare-fun p87() Bool)
(declare-fun p97() Bool)
(declare-fun p57() Bool)
(declare-fun p63() Bool)
(declare-fun p51() Bool)
(declare-fun p13() Bool)
(declare-fun p56() Bool)
(declare-fun p29() Bool)
(declare-fun p30() Bool)
(declare-fun p5() Bool)
(declare-fun p55() Bool)
(declare-fun p7() Bool)
(declare-fun p15() Bool)
(declare-fun p60() Bool)
(declare-fun p4() Bool)
(declare-fun p18() Bool)
(declare-fun p32() Bool)
(declare-fun p38() Bool)
(declare-fun p31() Bool)
(declare-fun p92() Bool)
(declare-fun p23() Bool)
(declare-fun p12() Bool)
(declare-fun p80() Bool)
(declare-fun p14() Bool)
(declare-fun p3() Bool)
(declare-fun p70() Bool)
(declare-fun p53() Bool)
(declare-fun p37() Bool)
(declare-fun p95() Bool)
(declare-fun p99() Bool)
(declare-fun p45() Bool)
(declare-fun p61() Bool)
(assert
(and (or p20 p71 (not p94)) (or (not p76) p67 (not p59)) (or p39 (not p22) (not p58)) (or p72 p81 p84) (or (not p96) p44 (not p83)) (or p6 p71 (not p66)) (or p79 p73 (not p62)) (or (not p35) (not p36) (not p8)) (or p33 p84 p25) (or p34 p54 (not p68)) (or (not p64) (not p0) (not p41)) (or p1 (not p82) (not p71)) (or (not p67) (not p81) (not p28)) (or p9 (not p65) (not p1)) (or p85 p47 p46) (or p20 (not p43) (not p2)) (or p52 (not p76) (not p91)) (or p88 (not p16) p74) (or (not p6) (not p91) (not p67)) (or (not p66) (not p1) p90) (or (not p41) (not p40) p25) (or (not p17) (not p50) p75) (or p48 (not p88) p75) (or (not p98) (not p11) p10) (or p49 p25 (not p17)) (or (not p6) p27 p1) (or (not p44) p84 p35) (or (not p98) (not p77) p42) (or (not p25) p19 (not p11)) (or (not p24) p84 (not p36)) (or p69 (not p93) p69) (or p35 p50 p86) (or p10 p21 p67) (or p27 p50 p98) (or p1 p46 (not p20)) (or p22 (not p26) p20) (or (not p89) (not p69) p46) (or (not p78) (not p6) p76) (or (not p87) p97 (not p69)) (or p57 (not p63) p51) (or p96 p13 p28) (or p39 (not p9) (not p62)) (or (not p54) p6 (not p56)) (or p17 p56 p65) (or p29 p83 (not p72)) (or p30 p76 p10) (or (not p85) (not p5) p62) (or (not p55) p2 p65) (or (not p28) (not p7) (not p15)) (or p6 p47 p10) (or p75 (not p15) p83) (or p72 (not p6) p59) (or p60 (not p85) (not p4)) (or p4 p59 (not p91)) (or (not p43) p22 (not p76)) (or p20 p67 (not p28)) (or (not p59) (not p55) (not p62)) (or p59 (not p6) (not p64)) (or (not p17) p18 (not p82)) (or p8 (not p84) p17) (or (not p32) (not p89) (not p40)) (or p38 p31 (not p41)) (or p44 p32 (not p34)) (or (not p92) p43 p96) (or p28 (not p56) p34) (or (not p55) (not p23) p41) (or p7 (not p29) (not p57)) (or (not p52) p7 p12) (or p80 (not p49) (not p1)) (or (not p29) p48 (not p40)) (or (not p32) (not p1) (not p66)) (or (not p33) (not p67) p23) (or (not p63) p14 (not p3)) (or (not p0) (not p20) (not p78)) (or p60 (not p67) (not p75)) (or p8 (not p64) p33) (or p35 (not p36) p17) (or (not p40) p49 p92) (or p2 (not p81) p20) (or p20 (not p0) p87) (or (not p96) (not p56) (not p39)) (or (not p68) p56 (not p39)) (or p71 p60 (not p43)) (or (not p70) p13 (not p53)) (or (not p97) (not p72) (not p38)) (or p85 p25 (not p62)) (or p14 p37 (not p32)) (or (not p98) p70 (not p65)) (or p82 (not p54) p59) (or p75 (not p27) p93) (or (not p4) (not p4) p13) (or (not p4) (not p64) (not p18)) (or (not p24) (not p75) (not p19)) (or (not p88) (not p1) (not p95)) (or (not p78) (not p23) (not p99)) (or (not p4) (not p17) (not p21)) (or p47 (not p30) (not p10)) (or (not p37) (not p85) (not p56)) (or p4 p3 (not p28)) (or (not p31) p91 (not p83)) (or p74 (not p89) (not p37)) (or (not p50) (not p28) p73) (or (not p43) (not p95) p25) (or (not p32) (not p52) p52) (or (not p74) (not p94) p75) (or (not p50) (not p35) (not p13)) (or p32 p65 (not p16)) (or (not p55) p95 p60) (or (not p76) p11 p2) (or (not p55) (not p84) (not p67)) (or (not p43) (not p45) (not p23)) (or (not p22) p81 (not p97)) (or p74 (not p19) (not p78)) (or p28 p34 p62) (or (not p15) p94 p3) (or (not p90) p53 p28) (or (not p40) p32 (not p83)) (or (not p74) (not p71) p76) (or (not p59) p45 p48) (or (not p92) (not p75) (not p49)) (or (not p52) p90 p69) (or p6 (not p23) (not p82)) (or (not p3) (not p42) (not p91)) (or (not p17) (not p32) p14) (or (not p37) p3 (not p1)) (or p53 (not p16) (not p36)) (or p41 (not p13) p46) (or (not p11) p81 p56) (or p24 p41 (not p88)) (or (not p79) p72 p38) (or p63 (not p21) p65) (or (not p15) (not p9) p38) (or (not p86) (not p81) (not p62)) (or p34 (not p24) (not p91)) (or p46 (not p55) p1) (or (not p53) p9 (not p22)) (or p97 (not p33) (not p56)) (or p44 p55 p51) (or (not p32) p74 p50) (or (not p11) p91 (not p66)) (or (not p1) p29 (not p75)) (or (not p41) (not p33) (not p49)) (or (not p88) p52 (not p82)) (or p13 (not p63) (not p83)) (or p32 p85 p26) (or p4 (not p6) p66) (or (not p79) p86 (not p68)) (or p21 p58 (not p41)) (or (not p50) p7 p16) (or p55 (not p55) p21) (or (not p8) (not p37) (not p64)) (or (not p11) p72 p24) (or (not p12) (not p64) p15) (or p6 (not p62) (not p28)) (or p76 (not p4) (not p36)) (or p37 p92 p91) (or (not p12) (not p23) p20) (or p17 (not p74) p99) (or p83 (not p98) (not p17)) (or (not p58) (not p11) p76) (or p81 p77 p91) (or (not p63) (not p1) p32) (or (not p83) p29 p1) (or (not p0) p31 (not p92)) (or p49 p25 (not p12)) (or p60 (not p18) (not p71)) (or p71 p38 (not p51)) (or p8 p63 (not p53)) (or (not p76) (not p92) (not p89)) (or p58 p31 (not p68)) (or p21 p8 p5) (or (not p94) (not p70) (not p29)) (or p94 (not p30) (not p92)) (or (not p48) p72 (not p91)) (or (not p50) p4 (not p66)) (or (not p42) p60 p81) (or (not p20) p77 p96) (or p31 (not p42) p56) (or p38 (not p62) p61) (or p83 p88 (not p32)) (or (not p39) (not p59) (not p7)) (or p46 p59 p82) (or p16 (not p6) (not p27)) (or p54 (not p62) (not p22)) (or p93 p34 (not p42)) (or (not p12) p79 (not p70)) (or p88 p46 p5) (or p90 (not p29) p93) (or p57 p92 (not p93)) (or (not p26) (not p65) p16) (or p40 (not p32) p25) (or p44 p43 (not p82)) (or p64 p72 (not p68)) (or (not p0) p91 p45) (or (not p93) p80 p50) (or p74 (not p61) p49) (or p70 (not p48) (not p23)) (or (not p9) (not p19) p7) (or (not p29) p24 p55) (or (not p38) p38 p92) (or (not p23) p54 p79) (or p24 p99 (not p43)) (or (not p35) p33 p94) (or p41 (not p63) p23) (or p9 (not p46) (not p72)) (or (not p68) (not p21) (not p78)) (or p32 (not p85) (not p99)) (or (not p60) p37 p11) (or (not p68) p7 p6) (or p5 p18 p72) (or p82 (not p55) p75) (or p7 p67 p15) (or (not p58) (not p9) (not p9)) (or p9 (not p84) (not p73)) (or (not p71) (not p95) p95) (or p37 p80 p46) (or p85 p34 (not p57)) (or p49 (not p2) p1) (or (not p74) (not p68) (not p21)) (or (not p26) p1 p55) (or p47 p45 p49) (or (not p58) p83 p51) (or (not p98) (not p76) (not p73)) (or (not p57) p60 (not p19)) (or p11 p88 (not p46)) (or p94 p55 (not p38)) (or (not p53) (not p31) p46) (or p17 p89 p54) (or (not p51) (not p80) p88) (or (not p49) (not p83) (not p41)) (or p93 (not p92) p25) (or (not p2) (not p17) p1) (or p66 p43 (not p29)) (or p6 p4 (not p89)) (or p46 (not p27) p32) (or (not p71) p26 p80) (or p37 p17 (not p85)) (or (not p47) p24 p89) (or (not p58) p96 (not p0)) (or (not p20) (not p45) (not p48)) (or p6 p67 p4) (or (not p78) (not p97) p93) (or (not p21) p18 p52) (or (not p39) (not p40) (not p60)) (or p68 p40 p2) (or (not p88) (not p42) (not p40)) (or p6 p65 (not p14)) (or (not p53) p68 p10) (or p22 (not p80) p18) (or (not p68) p31 (not p29)) (or p36 p66 p72) (or p95 p42 (not p41)) (or (not p55) p52 (not p34)) (or (not p37) p61 p21) (or (not p19) p49 p60) (or p50 p70 p33) (or (not p68) p84 p30) (or (not p73) (not p72) (not p59)) (or (not p94) p28 p65) (or p40 (not p48) p43) (or p32 (not p35) (not p17)) (or p75 (not p95) p36) (or p6 (not p94) p25) (or (not p1) p73 p79) (or (not p81) p84 (not p27)) (or (not p4) p77 (not p46)) (or (not p17) p52 p7) (or (not p70) (not p95) p91) (or p72 p22 p50) (or p55 p5 (not p92)) (or (not p53) p89 (not p59)) (or (not p33) (not p97) p82) (or (not p40) (not p90) (not p81)) (or (not p86) p19 p92) (or p76 (not p57) (not p74)) (or p70 p17 (not p79)) (or (not p40) p14 p3) (or (not p80) (not p77) p22) (or p92 (not p91) (not p33)) (or p30 p15 (not p80)) (or p86 p10 (not p89)) (or (not p49) p83 (not p45)) (or p96 (not p80) p46) (or p94 p98 (not p12)) (or (not p92) (not p7) (not p77)) (or (not p5) p20 (not p20)) (or p34 (not p8) (not p57)) (or (not p47) (not p11) (not p45)) (or (not p62) (not p56) p32) (or (not p58) (not p23) p79) (or (not p94) p89 p41) (or p81 (not p7) p2) (or p62 (not p53) p71) (or p45 p61 p80) (or (not p60) (not p59) (not p2)) (or p30 (not p82) p81) (or p77 p20 p14) (or (not p87) p83 p61) (or p37 (not p94) (not p28)) (or p33 p90 (not p88)) (or (not p6) p94 (not p11)) (or p28 (not p63) p59) (or (not p35) p11 (not p86)) (or (not p56) p21 p11) (or p96 p11 p98) (or p93 p93 p49) (or p87 (not p18) (not p0)) (or (not p7) (not p0) p95) (or (not p42) (not p13) p2) (or (not p77) p53 p51) (or (not p73) p34 p60) (or (not p90) p28 (not p82)) (or (not p48) p46 (not p55)) (or p72 p78 (not p42)) (or p47 p34 (not p36)) (or p35 (not p99) p87) (or p59 (not p7) (not p47)) (or p79 (not p66) (not p14)) (or (not p15) p32 p9) (or (not p86) p93 p99) (or (not p20) p93 (not p63)) (or p63 (not p58) (not p71)) (or (not p23) (not p24) (not p4)) (or p70 p57 (not p9)) (or (not p89) (not p4) p59) (or (not p92) p93 (not p17)) (or p71 (not p23) p9) (or (not p53) p67 p92) (or (not p72) (not p75) (not p82)) (or (not p38) (not p85) (not p3)) (or (not p50) p83 p70) (or (not p23) p96 (not p36)) (or (not p48) p45 p76) (or p20 p28 (not p70)) (or (not p70) (not p99) (not p34)) (or (not p4) (not p36) p37) (or p72 p30 p70) (or (not p56) p62 (not p32)) (or (not p9) p67 p23) (or (not p84) (not p0) (not p36)) (or (not p32) p98 p92) (or (not p51) p18 (not p7)) (or (not p13) (not p25) p14) (or p32 (not p68) p14) (or (not p36) (not p48) p43) (or p81 p75 p48) (or (not p25) (not p40) p21) (or (not p46) p36 (not p98)) (or (not p7) p84 p90) (or (not p74) (not p24) p46) (or p23 (not p95) (not p12)) (or p9 p84 (not p39)) (or (not p4) (not p70) p79) (or (not p90) p76 (not p95)) (or (not p46) p79 (not p85)) (or p21 p6 (not p8)) (or p76 (not p74) p79) (or p55 p81 (not p19)) (or p44 (not p61) p14) (or (not p15) (not p77) p32) (or (not p19) p85 p82) (or p12 (not p32) (not p39)) (or p60 p66 p13) (or (not p90) (not p35) (not p34)) (or (not p38) (not p83) (not p85)) (or p5 p6 (not p78)) (or (not p82) p84 p58) (or p21 p39 (not p30)) (or (not p23) (not p84) (not p30)) (or (not p66) (not p14) p40) (or p55 (not p74) p82) (or (not p23) p21 p90) (or p40 p41 p42) (or p61 (not p24) p62) (or p37 (not p85) p16) (or (not p13) p39 (not p57)) (or p46 p94 (not p18)) (or (not p53) (not p86) (not p54)) (or (not p38) (not p66) p45) (or p51 (not p90) (not p42)) (or (not p77) p98 (not p4)) (or p8 (not p21) p12) (or (not p53) p21 (not p69)) (or (not p56) (not p34) p21) (or (not p65) p83 p45) (or (not p46) (not p86) p26) (or (not p54) (not p96) (not p32)) (or (not p96) (not p58) p2) (or (not p95) p41 (not p72)) (or (not p24) (not p36) p94) (or p26 p50 (not p61)) (or p83 (not p92) p14) (or p27 p15 p67) (or (not p75) p43 (not p86)) (or (not p46) p86 p9) (or p56 (not p1) (not p11)) (or (not p99) (not p43) p94) (or (not p11) (not p83) p77) (or p73 (not p2) p16) (or p48 (not p90) p43) (or p77 (not p35) (not p1)) (or p59 (not p78) (not p53)) (or p86 (not p53) p89) (or p81 (not p7) (not p7)) (or p98 (not p61) p94) (or p48 (not p87) p29) (or (not p80) p14 p98) (or (not p35) p9 p63) (or (not p25) p2 p72) (or (not p34) (not p23) (not p13)) (or p89 (not p77) (not p0)) (or (not p6) (not p23) p58) (or p36 p88 p80) (or (not p22) p83 (not p0)) (or (not p97) p55 (not p18)) (or (not p82) (not p73) (not p28)) (or (not p42) (not p16) (not p17)) (or (not p39) p43 (not p93)) (or p69 (not p93) p30) (or (not p68) (not p1) p19))
)
(check-sat)
(get-model)
